benchmark/results/graph__10-1000-0.10-02_11/graph__10-1000-0.10-02_11_Quinton_Benders_sub.txt
solution for: Quinton Benders_dual_sub
objective: 0.000158881
status: OPTIMAL_SOLUTION(2)
pi_p_a1_a0=0.000
pi_p_a0_a2=0.000
pi_p_a5_a3=0.000
pi_p_a2_a6=0.000
pi_p_a9_a5=0.000
pi_p_a6_a9=0.000
pi_d_a3_a1_proc_0=0.000
pi_y1_a0=-0.182
pi_y1_a1=-0.165
pi_y1_a2=-0.158
pi_y1_a3=-0.093
pi_y1_a5=-0.124
pi_y1_a6=-0.125
pi_y1_a9=-0.153
pi_y2_a3_proc_1=0.093
